NAME : B-n43-k6
COMMENT : (Augerat et al, Min no of trucks: 6, Optimal value: 742)
TYPE : CVRP
DIMENSION : 43
EDGE_WEIGHT_TYPE : EUC_2D 
CAPACITY : 100
NODE_COORD_SECTION 
1 74 34
2 9 22
3 13 28
4 47 63
5 74 43
6 71 10
7 11 61
8 23 33
9 14 29
10 31 34
11 22 29
12 50 66
13 16 30
14 48 70
15 16 0
16 18 33
17 20 34
18 26 36
19 49 0
20 19 0
21 80 17
22 75 13
23 18 68
24 10 27
25 12 66
26 80 50
27 29 43
28 79 48
29 14 0
30 76 51
31 54 68
DEMAND_SECTION 
1 0 
2 25 
3 19 
4 8 
5 10 
6 1 
7 14 
8 11 
9 20 
10 23 
11 3 
12 4 
13 6 
14 23 
15 7 
16 15 
17 13 
18 3 
19 11 
20 24 
21 8 
22 14 
23 8 
24 9 
25 24 
26 10 
27 19 
28 10 
29 5 
30 7 
31 23 
DEPOT_SECTION 
1  
-1  
EOF 
